200
400
317
317
316
315
314
314
313
311
311
308
307
306
303
301
299
299
298
298
298
294
293
292
292
289
288
284
283
279
279
278
277
277
275
274
273
272
272
268
267
264
262
262
261
260
260
259
257
256
256
256
253
253
253
253
252
251
248
248
246
244
243
242
242
240
240
239
239
237
237
234
233
232
230
230
223
222
220
218
213
211
210
210
210
206
206
205
204
201
200
199
199
197
196
196
195
194
190
190
189
189
186
183
182
181
181
181
180
179
175
174
171
170
169
169
167
166
165
165
165
161
156
156
152
147
146
146
144
144
142
142
140
139
138
138
137
136
136
136
132
131
131
131
131
130
129
124
123
122
117
117
115
115
114
113
112
109
108
106
96
95
93
91
89
89
89
88
87
87
86
85
84
82
82
81
81
79
78
73
73
72
68
67
65
59
58
58
57
57
55
55
53
51
51
46
46
45
45
43
42
40
